80 9439663
3 37 61 22 9 72 76 4 6 5 28 43 53 51 12 34 17 30 46 10 20 26 16 38 21 64 66 7 55 49 35 2 56 25 60 48 11 18 80 78 32 36 29 50 71 45 57 74 47 8 77 79 27 14 23 52 70 44 69 33 59 63 1 15 68 65 67 62 13 19 40 58 24 41 75 39 54 73 31 42 
